# Objective value = 5.4991891143546534e-01
x0_1 0
x0_2 1
x0_3 0
x0_4 0
x0_5 0
x0_6 0
x0_7 0
x0_8 0
x0_9 0
x0_10 1
x0_11 0
x0_12 0
x0_13 0
x0_14 0
x0_15 0
x0_16 0
x0_17 0
x0_18 0
x0_19 0
x0_20 1
x0_21 0
x0_22 0
x0_23 0
x0_24 0
x0_25 0
x0_26 0
x0_27 0
x0_28 1
x0_29 0
x0_30 1
x0_31 0
x0_32 0
x0_33 0
x0_34 0
x0_35 0
x0_36 0
x0_37 0
x0_38 0
x0_39 0
x0_40 0
x0_41 0
x0_42 1
x0_43 0
x0_44 1
x0_45 0
x0_46 0
x0_47 1
x0_48 0
x0_49 0
x0_50 0
x0_51 0
x0_52 0
x0_53 0
x0_54 0
x0_55 0
x0_56 0
x0_57 0
x0_58 0
x0_59 0
x0_60 0
x0_61 0
x1_2 0
x1_3 0
x1_4 0
x1_5 1
x1_6 1
x1_7 1
x1_8 0
x1_9 1
x1_10 0
x1_11 0
x1_12 0
x1_13 1
x1_14 0
x1_15 0
x1_16 0
x1_17 1
x1_18 0
x1_19 1
x1_20 0
x1_21 0
x1_22 1
x1_23 0
x1_24 0
x1_25 1
x1_26 1
x1_27 1
x1_28 0
x1_29 0
x1_30 0
x1_31 1
x1_32 1
x1_33 0
x1_34 0
x1_35 0
x1_36 0
x1_37 0
x1_38 0
x1_39 0
x1_40 0
x1_41 1
x1_42 0
x1_43 0
x1_44 0
x1_45 0
x1_46 0
x1_47 0
x1_48 1
x1_49 0
x1_50 0
x1_51 0
x1_52 0
x1_53 0
x1_54 1
x1_55 0
x1_56 1
x1_57 1
x1_58 0
x1_59 0
x1_60 1
x1_61 0
x2_3 0
x2_4 0
x2_5 0
x2_6 0
x2_7 0
x2_8 0
x2_9 0
x2_10 1
x2_11 0
x2_12 0
x2_13 0
x2_14 0
x2_15 0
x2_16 0
x2_17 0
x2_18 0
x2_19 0
x2_20 1
x2_21 0
x2_22 0
x2_23 0
x2_24 0
x2_25 0
x2_26 0
x2_27 0
x2_28 1
x2_29 0
x2_30 1
x2_31 0
x2_32 0
x2_33 0
x2_34 0
x2_35 0
x2_36 0
x2_37 0
x2_38 0
x2_39 0
x2_40 0
x2_41 0
x2_42 1
x2_43 0
x2_44 1
x2_45 0
x2_46 0
x2_47 1
x2_48 0
x2_49 0
x2_50 0
x2_51 0
x2_52 0
x2_53 0
x2_54 0
x2_55 0
x2_56 0
x2_57 0
x2_58 0
x2_59 0
x2_60 0
x2_61 0
x3_4 0
x3_5 0
x3_6 0
x3_7 0
x3_8 1
x3_9 0
x3_10 0
x3_11 0
x3_12 0
x3_13 0
x3_14 0
x3_15 0
x3_16 0
x3_17 0
x3_18 0
x3_19 0
x3_20 0
x3_21 0
x3_22 0
x3_23 0
x3_24 0
x3_25 0
x3_26 0
x3_27 0
x3_28 0
x3_29 0
x3_30 0
x3_31 0
x3_32 0
x3_33 0
x3_34 0
x3_35 0
x3_36 1
x3_37 0
x3_38 0
x3_39 1
x3_40 0
x3_41 0
x3_42 0
x3_43 0
x3_44 0
x3_45 0
x3_46 0
x3_47 0
x3_48 0
x3_49 0
x3_50 0
x3_51 0
x3_52 0
x3_53 0
x3_54 0
x3_55 0
x3_56 0
x3_57 0
x3_58 0
x3_59 1
x3_60 0
x3_61 0
x4_5 0
x4_6 0
x4_7 0
x4_8 0
x4_9 0
x4_10 0
x4_11 1
x4_12 0
x4_13 0
x4_14 0
x4_15 1
x4_16 0
x4_17 0
x4_18 1
x4_19 0
x4_20 0
x4_21 1
x4_22 0
x4_23 1
x4_24 1
x4_25 0
x4_26 0
x4_27 0
x4_28 0
x4_29 1
x4_30 0
x4_31 0
x4_32 0
x4_33 0
x4_34 0
x4_35 1
x4_36 0
x4_37 0
x4_38 0
x4_39 0
x4_40 0
x4_41 0
x4_42 0
x4_43 0
x4_44 0
x4_45 1
x4_46 0
x4_47 0
x4_48 0
x4_49 0
x4_50 0
x4_51 1
x4_52 0
x4_53 0
x4_54 0
x4_55 1
x4_56 0
x4_57 0
x4_58 0
x4_59 0
x4_60 0
x4_61 0
x5_6 1
x5_7 1
x5_8 0
x5_9 1
x5_10 0
x5_11 0
x5_12 0
x5_13 1
x5_14 0
x5_15 0
x5_16 0
x5_17 1
x5_18 0
x5_19 1
x5_20 0
x5_21 0
x5_22 1
x5_23 0
x5_24 0
x5_25 1
x5_26 1
x5_27 1
x5_28 0
x5_29 0
x5_30 0
x5_31 1
x5_32 1
x5_33 0
x5_34 0
x5_35 0
x5_36 0
x5_37 0
x5_38 0
x5_39 0
x5_40 0
x5_41 1
x5_42 0
x5_43 0
x5_44 0
x5_45 0
x5_46 0
x5_47 0
x5_48 1
x5_49 0
x5_50 0
x5_51 0
x5_52 0
x5_53 0
x5_54 1
x5_55 0
x5_56 1
x5_57 1
x5_58 0
x5_59 0
x5_60 1
x5_61 0
x6_7 1
x6_8 0
x6_9 1
x6_10 0
x6_11 0
x6_12 0
x6_13 1
x6_14 0
x6_15 0
x6_16 0
x6_17 1
x6_18 0
x6_19 1
x6_20 0
x6_21 0
x6_22 1
x6_23 0
x6_24 0
x6_25 1
x6_26 1
x6_27 1
x6_28 0
x6_29 0
x6_30 0
x6_31 1
x6_32 1
x6_33 0
x6_34 0
x6_35 0
x6_36 0
x6_37 0
x6_38 0
x6_39 0
x6_40 0
x6_41 1
x6_42 0
x6_43 0
x6_44 0
x6_45 0
x6_46 0
x6_47 0
x6_48 1
x6_49 0
x6_50 0
x6_51 0
x6_52 0
x6_53 0
x6_54 1
x6_55 0
x6_56 1
x6_57 1
x6_58 0
x6_59 0
x6_60 1
x6_61 0
x7_8 0
x7_9 1
x7_10 0
x7_11 0
x7_12 0
x7_13 1
x7_14 0
x7_15 0
x7_16 0
x7_17 1
x7_18 0
x7_19 1
x7_20 0
x7_21 0
x7_22 1
x7_23 0
x7_24 0
x7_25 1
x7_26 1
x7_27 1
x7_28 0
x7_29 0
x7_30 0
x7_31 1
x7_32 1
x7_33 0
x7_34 0
x7_35 0
x7_36 0
x7_37 0
x7_38 0
x7_39 0
x7_40 0
x7_41 1
x7_42 0
x7_43 0
x7_44 0
x7_45 0
x7_46 0
x7_47 0
x7_48 1
x7_49 0
x7_50 0
x7_51 0
x7_52 0
x7_53 0
x7_54 1
x7_55 0
x7_56 1
x7_57 1
x7_58 0
x7_59 0
x7_60 1
x7_61 0
x8_9 0
x8_10 0
x8_11 0
x8_12 0
x8_13 0
x8_14 0
x8_15 0
x8_16 0
x8_17 0
x8_18 0
x8_19 0
x8_20 0
x8_21 0
x8_22 0
x8_23 0
x8_24 0
x8_25 0
x8_26 0
x8_27 0
x8_28 0
x8_29 0
x8_30 0
x8_31 0
x8_32 0
x8_33 0
x8_34 0
x8_35 0
x8_36 1
x8_37 0
x8_38 0
x8_39 1
x8_40 0
x8_41 0
x8_42 0
x8_43 0
x8_44 0
x8_45 0
x8_46 0
x8_47 0
x8_48 0
x8_49 0
x8_50 0
x8_51 0
x8_52 0
x8_53 0
x8_54 0
x8_55 0
x8_56 0
x8_57 0
x8_58 0
x8_59 1
x8_60 0
x8_61 0
x9_10 0
x9_11 0
x9_12 0
x9_13 1
x9_14 0
x9_15 0
x9_16 0
x9_17 1
x9_18 0
x9_19 1
x9_20 0
x9_21 0
x9_22 1
x9_23 0
x9_24 0
x9_25 1
x9_26 1
x9_27 1
x9_28 0
x9_29 0
x9_30 0
x9_31 1
x9_32 1
x9_33 0
x9_34 0
x9_35 0
x9_36 0
x9_37 0
x9_38 0
x9_39 0
x9_40 0
x9_41 1
x9_42 0
x9_43 0
x9_44 0
x9_45 0
x9_46 0
x9_47 0
x9_48 1
x9_49 0
x9_50 0
x9_51 0
x9_52 0
x9_53 0
x9_54 1
x9_55 0
x9_56 1
x9_57 1
x9_58 0
x9_59 0
x9_60 1
x9_61 0
x10_11 0
x10_12 0
x10_13 0
x10_14 0
x10_15 0
x10_16 0
x10_17 0
x10_18 0
x10_19 0
x10_20 1
x10_21 0
x10_22 0
x10_23 0
x10_24 0
x10_25 0
x10_26 0
x10_27 0
x10_28 1
x10_29 0
x10_30 1
x10_31 0
x10_32 0
x10_33 0
x10_34 0
x10_35 0
x10_36 0
x10_37 0
x10_38 0
x10_39 0
x10_40 0
x10_41 0
x10_42 1
x10_43 0
x10_44 1
x10_45 0
x10_46 0
x10_47 1
x10_48 0
x10_49 0
x10_50 0
x10_51 0
x10_52 0
x10_53 0
x10_54 0
x10_55 0
x10_56 0
x10_57 0
x10_58 0
x10_59 0
x10_60 0
x10_61 0
x11_12 0
x11_13 0
x11_14 0
x11_15 1
x11_16 0
x11_17 0
x11_18 1
x11_19 0
x11_20 0
x11_21 1
x11_22 0
x11_23 1
x11_24 1
x11_25 0
x11_26 0
x11_27 0
x11_28 0
x11_29 1
x11_30 0
x11_31 0
x11_32 0
x11_33 0
x11_34 0
x11_35 1
x11_36 0
x11_37 0
x11_38 0
x11_39 0
x11_40 0
x11_41 0
x11_42 0
x11_43 0
x11_44 0
x11_45 1
x11_46 0
x11_47 0
x11_48 0
x11_49 0
x11_50 0
x11_51 1
x11_52 0
x11_53 0
x11_54 0
x11_55 1
x11_56 0
x11_57 0
x11_58 0
x11_59 0
x11_60 0
x11_61 0
x12_13 0
x12_14 1
x12_15 0
x12_16 1
x12_17 0
x12_18 0
x12_19 0
x12_20 0
x12_21 0
x12_22 0
x12_23 0
x12_24 0
x12_25 0
x12_26 0
x12_27 0
x12_28 0
x12_29 0
x12_30 0
x12_31 0
x12_32 0
x12_33 1
x12_34 1
x12_35 0
x12_36 0
x12_37 1
x12_38 1
x12_39 0
x12_40 1
x12_41 0
x12_42 0
x12_43 1
x12_44 0
x12_45 0
x12_46 1
x12_47 0
x12_48 0
x12_49 1
x12_50 1
x12_51 0
x12_52 1.0000000000000002e+00
x12_53 1
x12_54 0
x12_55 0
x12_56 0
x12_57 0
x12_58 1
x12_59 0
x12_60 0
x12_61 1
x13_14 0
x13_15 0
x13_16 0
x13_17 1
x13_18 0
x13_19 1
x13_20 0
x13_21 0
x13_22 1
x13_23 0
x13_24 0
x13_25 1
x13_26 1
x13_27 1
x13_28 0
x13_29 0
x13_30 0
x13_31 1
x13_32 1
x13_33 0
x13_34 0
x13_35 0
x13_36 0
x13_37 0
x13_38 0
x13_39 0
x13_40 0
x13_41 1
x13_42 0
x13_43 0
x13_44 0
x13_45 0
x13_46 0
x13_47 0
x13_48 1
x13_49 0
x13_50 0
x13_51 0
x13_52 0
x13_53 0
x13_54 1
x13_55 0
x13_56 1
x13_57 1
x13_58 0
x13_59 0
x13_60 1
x13_61 0
x14_15 0
x14_16 1
x14_17 0
x14_18 0
x14_19 0
x14_20 0
x14_21 0
x14_22 0
x14_23 0
x14_24 0
x14_25 0
x14_26 0
x14_27 0
x14_28 0
x14_29 0
x14_30 0
x14_31 0
x14_32 0
x14_33 1
x14_34 1
x14_35 0
x14_36 0
x14_37 1
x14_38 1
x14_39 0
x14_40 1
x14_41 0
x14_42 0
x14_43 1
x14_44 0
x14_45 0
x14_46 1
x14_47 0
x14_48 0
x14_49 1
x14_50 1
x14_51 0
x14_52 1.0000000000000002e+00
x14_53 1
x14_54 0
x14_55 0
x14_56 0
x14_57 0
x14_58 1
x14_59 0
x14_60 0
x14_61 1
x15_16 0
x15_17 0
x15_18 1
x15_19 0
x15_20 0
x15_21 1
x15_22 0
x15_23 1
x15_24 1
x15_25 0
x15_26 0
x15_27 0
x15_28 0
x15_29 1
x15_30 0
x15_31 0
x15_32 0
x15_33 0
x15_34 0
x15_35 1
x15_36 0
x15_37 0
x15_38 0
x15_39 0
x15_40 0
x15_41 0
x15_42 0
x15_43 0
x15_44 0
x15_45 1
x15_46 0
x15_47 0
x15_48 0
x15_49 0
x15_50 0
x15_51 1
x15_52 0
x15_53 0
x15_54 0
x15_55 1
x15_56 0
x15_57 0
x15_58 0
x15_59 0
x15_60 0
x15_61 0
x16_17 0
x16_18 0
x16_19 0
x16_20 0
x16_21 0
x16_22 0
x16_23 0
x16_24 0
x16_25 0
x16_26 0
x16_27 0
x16_28 0
x16_29 0
x16_30 0
x16_31 0
x16_32 0
x16_33 1
x16_34 1
x16_35 0
x16_36 0
x16_37 1
x16_38 1
x16_39 0
x16_40 1
x16_41 0
x16_42 0
x16_43 1
x16_44 0
x16_45 0
x16_46 1
x16_47 0
x16_48 0
x16_49 1
x16_50 1
x16_51 0
x16_52 1.0000000000000002e+00
x16_53 1
x16_54 0
x16_55 0
x16_56 0
x16_57 0
x16_58 1
x16_59 0
x16_60 0
x16_61 1
x17_18 0
x17_19 1
x17_20 0
x17_21 0
x17_22 1
x17_23 0
x17_24 0
x17_25 1
x17_26 1
x17_27 1
x17_28 0
x17_29 0
x17_30 0
x17_31 1
x17_32 1
x17_33 0
x17_34 0
x17_35 0
x17_36 0
x17_37 0
x17_38 0
x17_39 0
x17_40 0
x17_41 1
x17_42 0
x17_43 0
x17_44 0
x17_45 0
x17_46 0
x17_47 0
x17_48 1
x17_49 0
x17_50 0
x17_51 0
x17_52 0
x17_53 0
x17_54 1
x17_55 0
x17_56 1
x17_57 1
x17_58 0
x17_59 0
x17_60 1
x17_61 0
x18_19 0
x18_20 0
x18_21 1
x18_22 0
x18_23 1
x18_24 1
x18_25 0
x18_26 0
x18_27 0
x18_28 0
x18_29 1
x18_30 0
x18_31 0
x18_32 0
x18_33 0
x18_34 0
x18_35 1
x18_36 0
x18_37 0
x18_38 0
x18_39 0
x18_40 0
x18_41 0
x18_42 0
x18_43 0
x18_44 0
x18_45 1
x18_46 0
x18_47 0
x18_48 0
x18_49 0
x18_50 0
x18_51 1
x18_52 0
x18_53 0
x18_54 0
x18_55 1
x18_56 0
x18_57 0
x18_58 0
x18_59 0
x18_60 0
x18_61 0
x19_20 0
x19_21 0
x19_22 1
x19_23 0
x19_24 0
x19_25 1
x19_26 1
x19_27 1
x19_28 0
x19_29 0
x19_30 0
x19_31 1
x19_32 1
x19_33 0
x19_34 0
x19_35 0
x19_36 0
x19_37 0
x19_38 0
x19_39 0
x19_40 0
x19_41 1
x19_42 0
x19_43 0
x19_44 0
x19_45 0
x19_46 0
x19_47 0
x19_48 1
x19_49 0
x19_50 0
x19_51 0
x19_52 0
x19_53 0
x19_54 1
x19_55 0
x19_56 1
x19_57 1
x19_58 0
x19_59 0
x19_60 1
x19_61 0
x20_21 0
x20_22 0
x20_23 0
x20_24 0
x20_25 0
x20_26 0
x20_27 0
x20_28 1
x20_29 0
x20_30 1
x20_31 0
x20_32 0
x20_33 0
x20_34 0
x20_35 0
x20_36 0
x20_37 0
x20_38 0
x20_39 0
x20_40 0
x20_41 0
x20_42 1
x20_43 0
x20_44 1
x20_45 0
x20_46 0
x20_47 1
x20_48 0
x20_49 0
x20_50 0
x20_51 0
x20_52 0
x20_53 0
x20_54 0
x20_55 0
x20_56 0
x20_57 0
x20_58 0
x20_59 0
x20_60 0
x20_61 0
x21_22 0
x21_23 1
x21_24 1
x21_25 0
x21_26 0
x21_27 0
x21_28 0
x21_29 1
x21_30 0
x21_31 0
x21_32 0
x21_33 0
x21_34 0
x21_35 1
x21_36 0
x21_37 0
x21_38 0
x21_39 0
x21_40 0
x21_41 0
x21_42 0
x21_43 0
x21_44 0
x21_45 1
x21_46 0
x21_47 0
x21_48 0
x21_49 0
x21_50 0
x21_51 1
x21_52 0
x21_53 0
x21_54 0
x21_55 1
x21_56 0
x21_57 0
x21_58 0
x21_59 0
x21_60 0
x21_61 0
x22_23 0
x22_24 0
x22_25 1
x22_26 1
x22_27 1
x22_28 0
x22_29 0
x22_30 0
x22_31 1
x22_32 1
x22_33 0
x22_34 0
x22_35 0
x22_36 0
x22_37 0
x22_38 0
x22_39 0
x22_40 0
x22_41 1
x22_42 0
x22_43 0
x22_44 0
x22_45 0
x22_46 0
x22_47 0
x22_48 1
x22_49 0
x22_50 0
x22_51 0
x22_52 0
x22_53 0
x22_54 1
x22_55 0
x22_56 1
x22_57 1
x22_58 0
x22_59 0
x22_60 1
x22_61 0
x23_24 1
x23_25 0
x23_26 0
x23_27 0
x23_28 0
x23_29 1
x23_30 0
x23_31 0
x23_32 0
x23_33 0
x23_34 0
x23_35 1
x23_36 0
x23_37 0
x23_38 0
x23_39 0
x23_40 0
x23_41 0
x23_42 0
x23_43 0
x23_44 0
x23_45 1
x23_46 0
x23_47 0
x23_48 0
x23_49 0
x23_50 0
x23_51 1
x23_52 0
x23_53 0
x23_54 0
x23_55 1
x23_56 0
x23_57 0
x23_58 0
x23_59 0
x23_60 0
x23_61 0
x24_25 0
x24_26 0
x24_27 0
x24_28 0
x24_29 1
x24_30 0
x24_31 0
x24_32 0
x24_33 0
x24_34 0
x24_35 1
x24_36 0
x24_37 0
x24_38 0
x24_39 0
x24_40 0
x24_41 0
x24_42 0
x24_43 0
x24_44 0
x24_45 1
x24_46 0
x24_47 0
x24_48 0
x24_49 0
x24_50 0
x24_51 1
x24_52 0
x24_53 0
x24_54 0
x24_55 1
x24_56 0
x24_57 0
x24_58 0
x24_59 0
x24_60 0
x24_61 0
x25_26 1
x25_27 1
x25_28 0
x25_29 0
x25_30 0
x25_31 1
x25_32 1
x25_33 0
x25_34 0
x25_35 0
x25_36 0
x25_37 0
x25_38 0
x25_39 0
x25_40 0
x25_41 1
x25_42 0
x25_43 0
x25_44 0
x25_45 0
x25_46 0
x25_47 0
x25_48 1
x25_49 0
x25_50 0
x25_51 0
x25_52 0
x25_53 0
x25_54 1
x25_55 0
x25_56 1
x25_57 1
x25_58 0
x25_59 0
x25_60 1
x25_61 0
x26_27 1
x26_28 0
x26_29 0
x26_30 0
x26_31 1
x26_32 1
x26_33 0
x26_34 0
x26_35 0
x26_36 0
x26_37 0
x26_38 0
x26_39 0
x26_40 0
x26_41 1
x26_42 0
x26_43 0
x26_44 0
x26_45 0
x26_46 0
x26_47 0
x26_48 1
x26_49 0
x26_50 0
x26_51 0
x26_52 0
x26_53 0
x26_54 1
x26_55 0
x26_56 1
x26_57 1
x26_58 0
x26_59 0
x26_60 1
x26_61 0
x27_28 0
x27_29 0
x27_30 0
x27_31 1
x27_32 1
x27_33 0
x27_34 0
x27_35 0
x27_36 0
x27_37 0
x27_38 0
x27_39 0
x27_40 0
x27_41 1
x27_42 0
x27_43 0
x27_44 0
x27_45 0
x27_46 0
x27_47 0
x27_48 1
x27_49 0
x27_50 0
x27_51 0
x27_52 0
x27_53 0
x27_54 1
x27_55 0
x27_56 1
x27_57 1
x27_58 0
x27_59 0
x27_60 1
x27_61 0
x28_29 0
x28_30 1
x28_31 0
x28_32 0
x28_33 0
x28_34 0
x28_35 0
x28_36 0
x28_37 0
x28_38 0
x28_39 0
x28_40 0
x28_41 0
x28_42 1
x28_43 0
x28_44 1
x28_45 0
x28_46 0
x28_47 1
x28_48 0
x28_49 0
x28_50 0
x28_51 0
x28_52 0
x28_53 0
x28_54 0
x28_55 0
x28_56 0
x28_57 0
x28_58 0
x28_59 0
x28_60 0
x28_61 0
x29_30 0
x29_31 0
x29_32 0
x29_33 0
x29_34 0
x29_35 1
x29_36 0
x29_37 0
x29_38 0
x29_39 0
x29_40 0
x29_41 0
x29_42 0
x29_43 0
x29_44 0
x29_45 1
x29_46 0
x29_47 0
x29_48 0
x29_49 0
x29_50 0
x29_51 1
x29_52 0
x29_53 0
x29_54 0
x29_55 1
x29_56 0
x29_57 0
x29_58 0
x29_59 0
x29_60 0
x29_61 0
x30_31 0
x30_32 0
x30_33 0
x30_34 0
x30_35 0
x30_36 0
x30_37 0
x30_38 0
x30_39 0
x30_40 0
x30_41 0
x30_42 1
x30_43 0
x30_44 1
x30_45 0
x30_46 0
x30_47 1
x30_48 0
x30_49 0
x30_50 0
x30_51 0
x30_52 0
x30_53 0
x30_54 0
x30_55 0
x30_56 0
x30_57 0
x30_58 0
x30_59 0
x30_60 0
x30_61 0
x31_32 1
x31_33 0
x31_34 0
x31_35 0
x31_36 0
x31_37 0
x31_38 0
x31_39 0
x31_40 0
x31_41 1
x31_42 0
x31_43 0
x31_44 0
x31_45 0
x31_46 0
x31_47 0
x31_48 1
x31_49 0
x31_50 0
x31_51 0
x31_52 0
x31_53 0
x31_54 1
x31_55 0
x31_56 1
x31_57 1
x31_58 0
x31_59 0
x31_60 1
x31_61 0
x32_33 0
x32_34 0
x32_35 0
x32_36 0
x32_37 0
x32_38 0
x32_39 0
x32_40 0
x32_41 1
x32_42 0
x32_43 0
x32_44 0
x32_45 0
x32_46 0
x32_47 0
x32_48 1
x32_49 0
x32_50 0
x32_51 0
x32_52 0
x32_53 0
x32_54 1
x32_55 0
x32_56 1
x32_57 1
x32_58 0
x32_59 0
x32_60 1
x32_61 0
x33_34 1
x33_35 0
x33_36 0
x33_37 1
x33_38 1
x33_39 0
x33_40 1
x33_41 0
x33_42 0
x33_43 1
x33_44 0
x33_45 0
x33_46 1
x33_47 0
x33_48 0
x33_49 1
x33_50 1
x33_51 0
x33_52 1.0000000000000002e+00
x33_53 1
x33_54 0
x33_55 0
x33_56 0
x33_57 0
x33_58 1
x33_59 0
x33_60 0
x33_61 1
x34_35 0
x34_36 0
x34_37 1
x34_38 1
x34_39 0
x34_40 1
x34_41 0
x34_42 0
x34_43 1
x34_44 0
x34_45 0
x34_46 1
x34_47 0
x34_48 0
x34_49 1
x34_50 1
x34_51 0
x34_52 1.0000000000000002e+00
x34_53 1
x34_54 0
x34_55 0
x34_56 0
x34_57 0
x34_58 1
x34_59 0
x34_60 0
x34_61 1
x35_36 0
x35_37 0
x35_38 0
x35_39 0
x35_40 0
x35_41 0
x35_42 0
x35_43 0
x35_44 0
x35_45 1
x35_46 0
x35_47 0
x35_48 0
x35_49 0
x35_50 0
x35_51 1
x35_52 0
x35_53 0
x35_54 0
x35_55 1
x35_56 0
x35_57 0
x35_58 0
x35_59 0
x35_60 0
x35_61 0
x36_37 0
x36_38 0
x36_39 1
x36_40 0
x36_41 0
x36_42 0
x36_43 0
x36_44 0
x36_45 0
x36_46 0
x36_47 0
x36_48 0
x36_49 0
x36_50 0
x36_51 0
x36_52 0
x36_53 0
x36_54 0
x36_55 0
x36_56 0
x36_57 0
x36_58 0
x36_59 1
x36_60 0
x36_61 0
x37_38 1
x37_39 0
x37_40 1
x37_41 0
x37_42 0
x37_43 1
x37_44 0
x37_45 0
x37_46 1
x37_47 0
x37_48 0
x37_49 1
x37_50 1
x37_51 0
x37_52 1.0000000000000002e+00
x37_53 1
x37_54 0
x37_55 0
x37_56 0
x37_57 0
x37_58 1
x37_59 0
x37_60 0
x37_61 1
x38_39 0
x38_40 1.0000000000000004e+00
x38_41 0
x38_42 0
x38_43 1
x38_44 0
x38_45 0
x38_46 1
x38_47 0
x38_48 0
x38_49 1
x38_50 1
x38_51 0
x38_52 1.0000000000000002e+00
x38_53 1
x38_54 0
x38_55 0
x38_56 0
x38_57 0
x38_58 1
x38_59 0
x38_60 0
x38_61 1
x39_40 0
x39_41 0
x39_42 0
x39_43 0
x39_44 0
x39_45 0
x39_46 0
x39_47 0
x39_48 0
x39_49 0
x39_50 0
x39_51 0
x39_52 0
x39_53 0
x39_54 0
x39_55 0
x39_56 0
x39_57 0
x39_58 0
x39_59 1
x39_60 0
x39_61 0
x40_41 0
x40_42 0
x40_43 1
x40_44 0
x40_45 0
x40_46 1
x40_47 0
x40_48 0
x40_49 1
x40_50 1
x40_51 0
x40_52 1
x40_53 1
x40_54 0
x40_55 0
x40_56 0
x40_57 0
x40_58 1.0000000000000002e+00
x40_59 0
x40_60 0
x40_61 1
x41_42 0
x41_43 0
x41_44 0
x41_45 0
x41_46 0
x41_47 0
x41_48 1
x41_49 0
x41_50 0
x41_51 0
x41_52 0
x41_53 0
x41_54 1
x41_55 0
x41_56 1
x41_57 1
x41_58 0
x41_59 0
x41_60 1
x41_61 0
x42_43 0
x42_44 1
x42_45 0
x42_46 0
x42_47 1
x42_48 0
x42_49 0
x42_50 0
x42_51 0
x42_52 0
x42_53 0
x42_54 0
x42_55 0
x42_56 0
x42_57 0
x42_58 0
x42_59 0
x42_60 0
x42_61 0
x43_44 0
x43_45 0
x43_46 1
x43_47 0
x43_48 0
x43_49 1
x43_50 1
x43_51 0
x43_52 1.0000000000000002e+00
x43_53 1
x43_54 0
x43_55 0
x43_56 0
x43_57 0
x43_58 1
x43_59 0
x43_60 0
x43_61 1
x44_45 0
x44_46 0
x44_47 1
x44_48 0
x44_49 0
x44_50 0
x44_51 0
x44_52 0
x44_53 0
x44_54 0
x44_55 0
x44_56 0
x44_57 0
x44_58 0
x44_59 0
x44_60 0
x44_61 0
x45_46 0
x45_47 0
x45_48 0
x45_49 0
x45_50 0
x45_51 1
x45_52 0
x45_53 0
x45_54 0
x45_55 1
x45_56 0
x45_57 0
x45_58 0
x45_59 0
x45_60 0
x45_61 0
x46_47 0
x46_48 0
x46_49 1
x46_50 1
x46_51 0
x46_52 1.0000000000000002e+00
x46_53 1
x46_54 0
x46_55 0
x46_56 0
x46_57 0
x46_58 1
x46_59 0
x46_60 0
x46_61 1
x47_48 0
x47_49 0
x47_50 0
x47_51 0
x47_52 0
x47_53 0
x47_54 0
x47_55 0
x47_56 0
x47_57 0
x47_58 0
x47_59 0
x47_60 0
x47_61 0
x48_49 0
x48_50 0
x48_51 0
x48_52 0
x48_53 0
x48_54 1
x48_55 0
x48_56 1
x48_57 1
x48_58 0
x48_59 0
x48_60 1
x48_61 0
x49_50 1
x49_51 0
x49_52 1.0000000000000002e+00
x49_53 1
x49_54 0
x49_55 0
x49_56 0
x49_57 0
x49_58 1
x49_59 0
x49_60 0
x49_61 1
x50_51 0
x50_52 1.0000000000000002e+00
x50_53 1
x50_54 0
x50_55 0
x50_56 0
x50_57 0
x50_58 1
x50_59 0
x50_60 0
x50_61 1
x51_52 0
x51_53 0
x51_54 0
x51_55 1
x51_56 0
x51_57 0
x51_58 0
x51_59 0
x51_60 0
x51_61 0
x52_53 1.0000000000000002e+00
x52_54 0
x52_55 0
x52_56 0
x52_57 0
x52_58 1.0000000000000002e+00
x52_59 0
x52_60 0
x52_61 1.0000000000000002e+00
x53_54 0
x53_55 0
x53_56 0
x53_57 0
x53_58 1
x53_59 0
x53_60 0
x53_61 1
x54_55 0
x54_56 1
x54_57 1
x54_58 0
x54_59 0
x54_60 1
x54_61 0
x55_56 0
x55_57 0
x55_58 0
x55_59 0
x55_60 0
x55_61 0
x56_57 1
x56_58 0
x56_59 0
x56_60 1
x56_61 0
x57_58 0
x57_59 0
x57_60 1
x57_61 0
x58_59 0
x58_60 0
x58_61 1
x59_60 0
x59_61 0
x60_61 0
